(set-info :smt-lib-version 2.6)
(set-logic QF_NIA)
(set-info :source |
Generated by: Cristina Borralleras, Daniel Larraz, Albert Oliveras, Enric Rodriguez-Carbonell, Albert Rubio
Generated on: 2017-04-27
Generator: VeryMax
Application: Termination proving
Target solver: barcelogic
|)
(set-info :license "https://creativecommons.org/licenses/by/4.0/")
(set-info :category "industrial")
(set-info :status sat)
(declare-fun Nl2main_a1 () Int)
(declare-fun Nl2main_b1 () Int)
(declare-fun Nl2main_am1 () Int)
(declare-fun Nl2main_bm1 () Int)
(declare-fun Nl2main_a2 () Int)
(declare-fun Nl2main_b2 () Int)
(declare-fun Nl2main_am2 () Int)
(declare-fun Nl2main_bm2 () Int)
(declare-fun Nl2main_a3 () Int)
(declare-fun Nl2main_b3 () Int)
(declare-fun Nl2main_am3 () Int)
(declare-fun Nl2main_bm3 () Int)
(declare-fun lam0n0 () Int)
(declare-fun lam0n1 () Int)
(declare-fun lam0n2 () Int)
(declare-fun lam0n3 () Int)
(declare-fun lam0n4 () Int)
(declare-fun lam0n5 () Int)
(declare-fun Nl2CT1 () Int)
(declare-fun Nl2CT2 () Int)
(declare-fun Nl2CT3 () Int)
(declare-fun lam1n0 () Int)
(declare-fun lam1n1 () Int)
(declare-fun lam1n2 () Int)
(declare-fun lam1n3 () Int)
(declare-fun lam1n4 () Int)
(declare-fun lam1n5 () Int)
(declare-fun lam2n0 () Int)
(declare-fun lam2n1 () Int)
(declare-fun lam2n2 () Int)
(declare-fun lam2n3 () Int)
(declare-fun lam2n4 () Int)
(declare-fun lam2n5 () Int)
(declare-fun lam3n0 () Int)
(declare-fun lam3n1 () Int)
(declare-fun lam3n2 () Int)
(declare-fun lam3n3 () Int)
(declare-fun lam3n4 () Int)
(declare-fun lam3n5 () Int)
(declare-fun lam4n0 () Int)
(declare-fun lam4n1 () Int)
(declare-fun lam4n2 () Int)
(declare-fun lam4n3 () Int)
(declare-fun lam4n4 () Int)
(declare-fun lam4n5 () Int)
(declare-fun lam5n0 () Int)
(declare-fun lam5n1 () Int)
(declare-fun lam5n2 () Int)
(declare-fun lam5n3 () Int)
(declare-fun lam5n4 () Int)
(declare-fun lam5n5 () Int)
(declare-fun lam6n0 () Int)
(declare-fun lam6n1 () Int)
(declare-fun lam6n2 () Int)
(declare-fun lam6n3 () Int)
(declare-fun lam6n4 () Int)
(declare-fun lam6n5 () Int)
(declare-fun lam7n0 () Int)
(declare-fun lam7n1 () Int)
(declare-fun lam7n2 () Int)
(declare-fun lam7n3 () Int)
(declare-fun lam7n4 () Int)
(declare-fun lam7n5 () Int)
(declare-fun lam8n0 () Int)
(declare-fun lam8n1 () Int)
(declare-fun lam9n0 () Int)
(declare-fun lam9n1 () Int)
(declare-fun lam10n0 () Int)
(declare-fun lam10n1 () Int)
(declare-fun main_a () Int)
(declare-fun main_am () Int)
(declare-fun main_b () Int)
(declare-fun main_bm () Int)
(declare-fun lam14n0 () Int)
(declare-fun lam14n1 () Int)
(declare-fun lam14n2 () Int)
(declare-fun lam14n3 () Int)
(declare-fun lam14n4 () Int)
(declare-fun lam14n5 () Int)
(declare-fun RFN1_CT () Int)
(declare-fun RFN1_main_am () Int)
(declare-fun RFN1_main_a () Int)
(declare-fun RFN1_main_b () Int)
(declare-fun RFN1_main_bm () Int)
(declare-fun lam12n0 () Int)
(declare-fun lam12n1 () Int)
(declare-fun lam12n2 () Int)
(declare-fun lam12n3 () Int)
(declare-fun lam12n4 () Int)
(declare-fun lam12n5 () Int)
(declare-fun lam13n0 () Int)
(declare-fun lam13n1 () Int)
(declare-fun lam13n2 () Int)
(declare-fun lam13n3 () Int)
(declare-fun lam13n4 () Int)
(declare-fun lam13n5 () Int)
(declare-fun lam11n0 () Int)
(declare-fun lam11n1 () Int)
(declare-fun lam11n2 () Int)
(declare-fun lam11n3 () Int)
(declare-fun lam11n4 () Int)
(declare-fun lam11n5 () Int)
(assert ( and ( <= ( - 1 ) Nl2main_a1 ) ( <= Nl2main_a1 1 ) ( <= ( - 1 ) Nl2main_b1 ) ( <= Nl2main_b1 1 ) ( <= ( - 1 ) Nl2main_am1 ) ( <= Nl2main_am1 1 ) ( <= ( - 1 ) Nl2main_bm1 ) ( <= Nl2main_bm1 1 ) ( <= ( - 1 ) Nl2main_a2 ) ( <= Nl2main_a2 1 ) ( <= ( - 1 ) Nl2main_b2 ) ( <= Nl2main_b2 1 ) ( <= ( - 1 ) Nl2main_am2 ) ( <= Nl2main_am2 1 ) ( <= ( - 1 ) Nl2main_bm2 ) ( <= Nl2main_bm2 1 ) ( <= ( - 1 ) Nl2main_a3 ) ( <= Nl2main_a3 1 ) ( <= ( - 1 ) Nl2main_b3 ) ( <= Nl2main_b3 1 ) ( <= ( - 1 ) Nl2main_am3 ) ( <= Nl2main_am3 1 ) ( <= ( - 1 ) Nl2main_bm3 ) ( <= Nl2main_bm3 1 ) ))
(assert ( or ( and ( >= lam0n0 0 ) ( >= lam0n1 0 ) ( >= lam0n2 0 ) ( >= lam0n3 0 ) ( >= lam0n4 0 ) ( >= lam0n5 0 ) ( > ( + ( * 1 lam0n2 ) ( * Nl2CT1 lam0n3 ) ( * Nl2CT2 lam0n4 ) ( * Nl2CT3 lam0n5 ) ( - 1 ) ) 0 ) ( = ( + ( * 1 lam0n0 ) ( * ( - 1 ) lam0n1 ) ( * Nl2main_a1 lam0n3 ) ( * Nl2main_a2 lam0n4 ) ( * Nl2main_a3 lam0n5 ) ) 0 ) ( = ( + ( * ( - 1 ) lam0n1 ) ( * Nl2main_b1 lam0n3 ) ( * Nl2main_b2 lam0n4 ) ( * Nl2main_b3 lam0n5 ) ) 0 ) ( = ( + ( * 1 lam0n1 ) ( * 1 lam0n2 ) ( * Nl2main_am1 lam0n3 ) ( * Nl2main_am2 lam0n4 ) ( * Nl2main_am3 lam0n5 ) ) 0 ) ( = ( + ( * ( - 1 ) lam0n1 ) ( * ( - 1 ) lam0n2 ) ( * Nl2main_bm1 lam0n3 ) ( * Nl2main_bm2 lam0n4 ) ( * Nl2main_bm3 lam0n5 ) ) 0 ) ) ( and ( >= lam1n0 0 ) ( >= lam1n1 0 ) ( >= lam1n2 0 ) ( >= lam1n3 0 ) ( >= lam1n4 0 ) ( >= lam1n5 0 ) ( > ( + ( * 1 lam1n2 ) ( * Nl2CT1 lam1n3 ) ( * Nl2CT2 lam1n4 ) ( * Nl2CT3 lam1n5 ) ( - 1 ( + Nl2CT1 ( * Nl2main_am1 0 ) ) ) ) 0 ) ( = ( + ( * 1 lam1n0 ) ( * ( - 1 ) lam1n1 ) ( * Nl2main_a1 lam1n3 ) ( * Nl2main_a2 lam1n4 ) ( * Nl2main_a3 lam1n5 ) ( - ( + ( + 0 Nl2main_a1 ) ( * Nl2main_am1 1 ) ) ) ) 0 ) ( = ( + ( * ( - 1 ) lam1n1 ) ( * Nl2main_b1 lam1n3 ) ( * Nl2main_b2 lam1n4 ) ( * Nl2main_b3 lam1n5 ) ( - ( + 0 Nl2main_b1 ) ) ) 0 ) ( = ( + ( * 1 lam1n1 ) ( * 1 lam1n2 ) ( * Nl2main_am1 lam1n3 ) ( * Nl2main_am2 lam1n4 ) ( * Nl2main_am3 lam1n5 ) ( - ( + 0 ( * Nl2main_am1 1 ) ) ) ) 0 ) ( = ( + ( * ( - 1 ) lam1n1 ) ( * ( - 1 ) lam1n2 ) ( * Nl2main_bm1 lam1n3 ) ( * Nl2main_bm2 lam1n4 ) ( * Nl2main_bm3 lam1n5 ) ( - ( + 0 Nl2main_bm1 ) ) ) 0 ) ) ))
(assert ( or ( and ( >= lam0n0 0 ) ( >= lam0n1 0 ) ( >= lam0n2 0 ) ( >= lam0n3 0 ) ( >= lam0n4 0 ) ( >= lam0n5 0 ) ( > ( + ( * 1 lam0n2 ) ( * Nl2CT1 lam0n3 ) ( * Nl2CT2 lam0n4 ) ( * Nl2CT3 lam0n5 ) ( - 1 ) ) 0 ) ( = ( + ( * 1 lam0n0 ) ( * ( - 1 ) lam0n1 ) ( * Nl2main_a1 lam0n3 ) ( * Nl2main_a2 lam0n4 ) ( * Nl2main_a3 lam0n5 ) ) 0 ) ( = ( + ( * ( - 1 ) lam0n1 ) ( * Nl2main_b1 lam0n3 ) ( * Nl2main_b2 lam0n4 ) ( * Nl2main_b3 lam0n5 ) ) 0 ) ( = ( + ( * 1 lam0n1 ) ( * 1 lam0n2 ) ( * Nl2main_am1 lam0n3 ) ( * Nl2main_am2 lam0n4 ) ( * Nl2main_am3 lam0n5 ) ) 0 ) ( = ( + ( * ( - 1 ) lam0n1 ) ( * ( - 1 ) lam0n2 ) ( * Nl2main_bm1 lam0n3 ) ( * Nl2main_bm2 lam0n4 ) ( * Nl2main_bm3 lam0n5 ) ) 0 ) ) ( and ( >= lam2n0 0 ) ( >= lam2n1 0 ) ( >= lam2n2 0 ) ( >= lam2n3 0 ) ( >= lam2n4 0 ) ( >= lam2n5 0 ) ( > ( + ( * 1 lam2n2 ) ( * Nl2CT1 lam2n3 ) ( * Nl2CT2 lam2n4 ) ( * Nl2CT3 lam2n5 ) ( - 1 ( + Nl2CT2 ( * Nl2main_am2 0 ) ) ) ) 0 ) ( = ( + ( * 1 lam2n0 ) ( * ( - 1 ) lam2n1 ) ( * Nl2main_a1 lam2n3 ) ( * Nl2main_a2 lam2n4 ) ( * Nl2main_a3 lam2n5 ) ( - ( + ( + 0 Nl2main_a2 ) ( * Nl2main_am2 1 ) ) ) ) 0 ) ( = ( + ( * ( - 1 ) lam2n1 ) ( * Nl2main_b1 lam2n3 ) ( * Nl2main_b2 lam2n4 ) ( * Nl2main_b3 lam2n5 ) ( - ( + 0 Nl2main_b2 ) ) ) 0 ) ( = ( + ( * 1 lam2n1 ) ( * 1 lam2n2 ) ( * Nl2main_am1 lam2n3 ) ( * Nl2main_am2 lam2n4 ) ( * Nl2main_am3 lam2n5 ) ( - ( + 0 ( * Nl2main_am2 1 ) ) ) ) 0 ) ( = ( + ( * ( - 1 ) lam2n1 ) ( * ( - 1 ) lam2n2 ) ( * Nl2main_bm1 lam2n3 ) ( * Nl2main_bm2 lam2n4 ) ( * Nl2main_bm3 lam2n5 ) ( - ( + 0 Nl2main_bm2 ) ) ) 0 ) ) ))
(assert ( or ( and ( >= lam0n0 0 ) ( >= lam0n1 0 ) ( >= lam0n2 0 ) ( >= lam0n3 0 ) ( >= lam0n4 0 ) ( >= lam0n5 0 ) ( > ( + ( * 1 lam0n2 ) ( * Nl2CT1 lam0n3 ) ( * Nl2CT2 lam0n4 ) ( * Nl2CT3 lam0n5 ) ( - 1 ) ) 0 ) ( = ( + ( * 1 lam0n0 ) ( * ( - 1 ) lam0n1 ) ( * Nl2main_a1 lam0n3 ) ( * Nl2main_a2 lam0n4 ) ( * Nl2main_a3 lam0n5 ) ) 0 ) ( = ( + ( * ( - 1 ) lam0n1 ) ( * Nl2main_b1 lam0n3 ) ( * Nl2main_b2 lam0n4 ) ( * Nl2main_b3 lam0n5 ) ) 0 ) ( = ( + ( * 1 lam0n1 ) ( * 1 lam0n2 ) ( * Nl2main_am1 lam0n3 ) ( * Nl2main_am2 lam0n4 ) ( * Nl2main_am3 lam0n5 ) ) 0 ) ( = ( + ( * ( - 1 ) lam0n1 ) ( * ( - 1 ) lam0n2 ) ( * Nl2main_bm1 lam0n3 ) ( * Nl2main_bm2 lam0n4 ) ( * Nl2main_bm3 lam0n5 ) ) 0 ) ) ( and ( >= lam3n0 0 ) ( >= lam3n1 0 ) ( >= lam3n2 0 ) ( >= lam3n3 0 ) ( >= lam3n4 0 ) ( >= lam3n5 0 ) ( > ( + ( * 1 lam3n2 ) ( * Nl2CT1 lam3n3 ) ( * Nl2CT2 lam3n4 ) ( * Nl2CT3 lam3n5 ) ( - 1 ( + Nl2CT3 ( * Nl2main_am3 0 ) ) ) ) 0 ) ( = ( + ( * 1 lam3n0 ) ( * ( - 1 ) lam3n1 ) ( * Nl2main_a1 lam3n3 ) ( * Nl2main_a2 lam3n4 ) ( * Nl2main_a3 lam3n5 ) ( - ( + ( + 0 Nl2main_a3 ) ( * Nl2main_am3 1 ) ) ) ) 0 ) ( = ( + ( * ( - 1 ) lam3n1 ) ( * Nl2main_b1 lam3n3 ) ( * Nl2main_b2 lam3n4 ) ( * Nl2main_b3 lam3n5 ) ( - ( + 0 Nl2main_b3 ) ) ) 0 ) ( = ( + ( * 1 lam3n1 ) ( * 1 lam3n2 ) ( * Nl2main_am1 lam3n3 ) ( * Nl2main_am2 lam3n4 ) ( * Nl2main_am3 lam3n5 ) ( - ( + 0 ( * Nl2main_am3 1 ) ) ) ) 0 ) ( = ( + ( * ( - 1 ) lam3n1 ) ( * ( - 1 ) lam3n2 ) ( * Nl2main_bm1 lam3n3 ) ( * Nl2main_bm2 lam3n4 ) ( * Nl2main_bm3 lam3n5 ) ( - ( + 0 Nl2main_bm3 ) ) ) 0 ) ) ))
(assert ( or ( and ( >= lam4n0 0 ) ( >= lam4n1 0 ) ( >= lam4n2 0 ) ( >= lam4n3 0 ) ( >= lam4n4 0 ) ( >= lam4n5 0 ) ( > ( + ( * 1 lam4n2 ) ( * Nl2CT1 lam4n3 ) ( * Nl2CT2 lam4n4 ) ( * Nl2CT3 lam4n5 ) ( - 1 ) ) 0 ) ( = ( + ( * 1 lam4n0 ) ( * ( - 1 ) lam4n1 ) ( * Nl2main_a1 lam4n3 ) ( * Nl2main_a2 lam4n4 ) ( * Nl2main_a3 lam4n5 ) ) 0 ) ( = ( + ( * ( - 1 ) lam4n1 ) ( * Nl2main_b1 lam4n3 ) ( * Nl2main_b2 lam4n4 ) ( * Nl2main_b3 lam4n5 ) ) 0 ) ( = ( + ( * 1 lam4n1 ) ( * ( - 1 ) lam4n2 ) ( * Nl2main_am1 lam4n3 ) ( * Nl2main_am2 lam4n4 ) ( * Nl2main_am3 lam4n5 ) ) 0 ) ( = ( + ( * ( - 1 ) lam4n1 ) ( * 1 lam4n2 ) ( * Nl2main_bm1 lam4n3 ) ( * Nl2main_bm2 lam4n4 ) ( * Nl2main_bm3 lam4n5 ) ) 0 ) ) ( and ( >= lam5n0 0 ) ( >= lam5n1 0 ) ( >= lam5n2 0 ) ( >= lam5n3 0 ) ( >= lam5n4 0 ) ( >= lam5n5 0 ) ( > ( + ( * 1 lam5n2 ) ( * Nl2CT1 lam5n3 ) ( * Nl2CT2 lam5n4 ) ( * Nl2CT3 lam5n5 ) ( - 1 ( + Nl2CT1 ( * Nl2main_bm1 0 ) ) ) ) 0 ) ( = ( + ( * 1 lam5n0 ) ( * ( - 1 ) lam5n1 ) ( * Nl2main_a1 lam5n3 ) ( * Nl2main_a2 lam5n4 ) ( * Nl2main_a3 lam5n5 ) ( - ( + 0 Nl2main_a1 ) ) ) 0 ) ( = ( + ( * ( - 1 ) lam5n1 ) ( * Nl2main_b1 lam5n3 ) ( * Nl2main_b2 lam5n4 ) ( * Nl2main_b3 lam5n5 ) ( - ( + ( + 0 Nl2main_b1 ) ( * Nl2main_bm1 1 ) ) ) ) 0 ) ( = ( + ( * 1 lam5n1 ) ( * ( - 1 ) lam5n2 ) ( * Nl2main_am1 lam5n3 ) ( * Nl2main_am2 lam5n4 ) ( * Nl2main_am3 lam5n5 ) ( - ( + 0 Nl2main_am1 ) ) ) 0 ) ( = ( + ( * ( - 1 ) lam5n1 ) ( * 1 lam5n2 ) ( * Nl2main_bm1 lam5n3 ) ( * Nl2main_bm2 lam5n4 ) ( * Nl2main_bm3 lam5n5 ) ( - ( + 0 ( * Nl2main_bm1 1 ) ) ) ) 0 ) ) ))
(assert ( or ( and ( >= lam4n0 0 ) ( >= lam4n1 0 ) ( >= lam4n2 0 ) ( >= lam4n3 0 ) ( >= lam4n4 0 ) ( >= lam4n5 0 ) ( > ( + ( * 1 lam4n2 ) ( * Nl2CT1 lam4n3 ) ( * Nl2CT2 lam4n4 ) ( * Nl2CT3 lam4n5 ) ( - 1 ) ) 0 ) ( = ( + ( * 1 lam4n0 ) ( * ( - 1 ) lam4n1 ) ( * Nl2main_a1 lam4n3 ) ( * Nl2main_a2 lam4n4 ) ( * Nl2main_a3 lam4n5 ) ) 0 ) ( = ( + ( * ( - 1 ) lam4n1 ) ( * Nl2main_b1 lam4n3 ) ( * Nl2main_b2 lam4n4 ) ( * Nl2main_b3 lam4n5 ) ) 0 ) ( = ( + ( * 1 lam4n1 ) ( * ( - 1 ) lam4n2 ) ( * Nl2main_am1 lam4n3 ) ( * Nl2main_am2 lam4n4 ) ( * Nl2main_am3 lam4n5 ) ) 0 ) ( = ( + ( * ( - 1 ) lam4n1 ) ( * 1 lam4n2 ) ( * Nl2main_bm1 lam4n3 ) ( * Nl2main_bm2 lam4n4 ) ( * Nl2main_bm3 lam4n5 ) ) 0 ) ) ( and ( >= lam6n0 0 ) ( >= lam6n1 0 ) ( >= lam6n2 0 ) ( >= lam6n3 0 ) ( >= lam6n4 0 ) ( >= lam6n5 0 ) ( > ( + ( * 1 lam6n2 ) ( * Nl2CT1 lam6n3 ) ( * Nl2CT2 lam6n4 ) ( * Nl2CT3 lam6n5 ) ( - 1 ( + Nl2CT2 ( * Nl2main_bm2 0 ) ) ) ) 0 ) ( = ( + ( * 1 lam6n0 ) ( * ( - 1 ) lam6n1 ) ( * Nl2main_a1 lam6n3 ) ( * Nl2main_a2 lam6n4 ) ( * Nl2main_a3 lam6n5 ) ( - ( + 0 Nl2main_a2 ) ) ) 0 ) ( = ( + ( * ( - 1 ) lam6n1 ) ( * Nl2main_b1 lam6n3 ) ( * Nl2main_b2 lam6n4 ) ( * Nl2main_b3 lam6n5 ) ( - ( + ( + 0 Nl2main_b2 ) ( * Nl2main_bm2 1 ) ) ) ) 0 ) ( = ( + ( * 1 lam6n1 ) ( * ( - 1 ) lam6n2 ) ( * Nl2main_am1 lam6n3 ) ( * Nl2main_am2 lam6n4 ) ( * Nl2main_am3 lam6n5 ) ( - ( + 0 Nl2main_am2 ) ) ) 0 ) ( = ( + ( * ( - 1 ) lam6n1 ) ( * 1 lam6n2 ) ( * Nl2main_bm1 lam6n3 ) ( * Nl2main_bm2 lam6n4 ) ( * Nl2main_bm3 lam6n5 ) ( - ( + 0 ( * Nl2main_bm2 1 ) ) ) ) 0 ) ) ))
(assert ( or ( and ( >= lam4n0 0 ) ( >= lam4n1 0 ) ( >= lam4n2 0 ) ( >= lam4n3 0 ) ( >= lam4n4 0 ) ( >= lam4n5 0 ) ( > ( + ( * 1 lam4n2 ) ( * Nl2CT1 lam4n3 ) ( * Nl2CT2 lam4n4 ) ( * Nl2CT3 lam4n5 ) ( - 1 ) ) 0 ) ( = ( + ( * 1 lam4n0 ) ( * ( - 1 ) lam4n1 ) ( * Nl2main_a1 lam4n3 ) ( * Nl2main_a2 lam4n4 ) ( * Nl2main_a3 lam4n5 ) ) 0 ) ( = ( + ( * ( - 1 ) lam4n1 ) ( * Nl2main_b1 lam4n3 ) ( * Nl2main_b2 lam4n4 ) ( * Nl2main_b3 lam4n5 ) ) 0 ) ( = ( + ( * 1 lam4n1 ) ( * ( - 1 ) lam4n2 ) ( * Nl2main_am1 lam4n3 ) ( * Nl2main_am2 lam4n4 ) ( * Nl2main_am3 lam4n5 ) ) 0 ) ( = ( + ( * ( - 1 ) lam4n1 ) ( * 1 lam4n2 ) ( * Nl2main_bm1 lam4n3 ) ( * Nl2main_bm2 lam4n4 ) ( * Nl2main_bm3 lam4n5 ) ) 0 ) ) ( and ( >= lam7n0 0 ) ( >= lam7n1 0 ) ( >= lam7n2 0 ) ( >= lam7n3 0 ) ( >= lam7n4 0 ) ( >= lam7n5 0 ) ( > ( + ( * 1 lam7n2 ) ( * Nl2CT1 lam7n3 ) ( * Nl2CT2 lam7n4 ) ( * Nl2CT3 lam7n5 ) ( - 1 ( + Nl2CT3 ( * Nl2main_bm3 0 ) ) ) ) 0 ) ( = ( + ( * 1 lam7n0 ) ( * ( - 1 ) lam7n1 ) ( * Nl2main_a1 lam7n3 ) ( * Nl2main_a2 lam7n4 ) ( * Nl2main_a3 lam7n5 ) ( - ( + 0 Nl2main_a3 ) ) ) 0 ) ( = ( + ( * ( - 1 ) lam7n1 ) ( * Nl2main_b1 lam7n3 ) ( * Nl2main_b2 lam7n4 ) ( * Nl2main_b3 lam7n5 ) ( - ( + ( + 0 Nl2main_b3 ) ( * Nl2main_bm3 1 ) ) ) ) 0 ) ( = ( + ( * 1 lam7n1 ) ( * ( - 1 ) lam7n2 ) ( * Nl2main_am1 lam7n3 ) ( * Nl2main_am2 lam7n4 ) ( * Nl2main_am3 lam7n5 ) ( - ( + 0 Nl2main_am3 ) ) ) 0 ) ( = ( + ( * ( - 1 ) lam7n1 ) ( * 1 lam7n2 ) ( * Nl2main_bm1 lam7n3 ) ( * Nl2main_bm2 lam7n4 ) ( * Nl2main_bm3 lam7n5 ) ( - ( + 0 ( * Nl2main_bm3 1 ) ) ) ) 0 ) ) ))
(assert ( and ( = ( + main_a ( * ( - 1 ) main_am ) ) 0 ) ( = ( + main_b ( * ( - 1 ) main_bm ) ) 0 ) ( <= ( + Nl2CT1 ( * ( + 0 Nl2main_a1 ) main_a ) ( * ( + 0 Nl2main_b1 ) main_b ) ( * ( + 0 Nl2main_am1 ) main_am ) ( * ( + 0 Nl2main_bm1 ) main_bm ) ) 0 ) ( <= ( + Nl2CT2 ( * ( + 0 Nl2main_a2 ) main_a ) ( * ( + 0 Nl2main_b2 ) main_b ) ( * ( + 0 Nl2main_am2 ) main_am ) ( * ( + 0 Nl2main_bm2 ) main_bm ) ) 0 ) ( <= ( + Nl2CT3 ( * ( + 0 Nl2main_a3 ) main_a ) ( * ( + 0 Nl2main_b3 ) main_b ) ( * ( + 0 Nl2main_am3 ) main_am ) ( * ( + 0 Nl2main_bm3 ) main_bm ) ) 0 ) ( <= main_a 0 ) ( <= ( + ( * ( - 1 ) main_a ) ( * ( - 1 ) main_b ) main_am ( * ( - 1 ) main_bm ) ) 0 ) ))
(assert ( or ( and ( and ( >= lam14n0 0 ) ( >= lam14n1 0 ) ( >= lam14n2 0 ) ( >= lam14n3 0 ) ( >= lam14n4 0 ) ( >= lam14n5 0 ) ( > ( + ( * 1 lam14n2 ) ( * Nl2CT1 lam14n3 ) ( * Nl2CT2 lam14n4 ) ( * Nl2CT3 lam14n5 ) ( - 1 ( - ( + RFN1_CT ( * RFN1_main_am 0 ) ) RFN1_CT ) ) ) 0 ) ( = ( + ( * 1 lam14n0 ) ( * ( - 1 ) lam14n1 ) ( * Nl2main_a1 lam14n3 ) ( * Nl2main_a2 lam14n4 ) ( * Nl2main_a3 lam14n5 ) ( - ( - ( + ( + 0 RFN1_main_a ) ( * RFN1_main_am 1 ) ) RFN1_main_a ) ) ) 0 ) ( = ( + ( * ( - 1 ) lam14n1 ) ( * Nl2main_b1 lam14n3 ) ( * Nl2main_b2 lam14n4 ) ( * Nl2main_b3 lam14n5 ) ( - ( - ( + 0 RFN1_main_b ) RFN1_main_b ) ) ) 0 ) ( = ( + ( * 1 lam14n1 ) ( * 1 lam14n2 ) ( * Nl2main_am1 lam14n3 ) ( * Nl2main_am2 lam14n4 ) ( * Nl2main_am3 lam14n5 ) ( - ( - ( + 0 ( * RFN1_main_am 1 ) ) RFN1_main_am ) ) ) 0 ) ( = ( + ( * ( - 1 ) lam14n1 ) ( * ( - 1 ) lam14n2 ) ( * Nl2main_bm1 lam14n3 ) ( * Nl2main_bm2 lam14n4 ) ( * Nl2main_bm3 lam14n5 ) ( - ( - ( + 0 RFN1_main_bm ) RFN1_main_bm ) ) ) 0 ) ) ( and ( and ( >= lam12n0 0 ) ( >= lam12n1 0 ) ( >= lam12n2 0 ) ( >= lam12n3 0 ) ( >= lam12n4 0 ) ( >= lam12n5 0 ) ( > ( + ( * 1 lam12n2 ) ( * Nl2CT1 lam12n3 ) ( * Nl2CT2 lam12n4 ) ( * Nl2CT3 lam12n5 ) ( - 1 ( - RFN1_CT ) ) ) 0 ) ( = ( + ( * 1 lam12n0 ) ( * ( - 1 ) lam12n1 ) ( * Nl2main_a1 lam12n3 ) ( * Nl2main_a2 lam12n4 ) ( * Nl2main_a3 lam12n5 ) ( - ( - RFN1_main_a ) ) ) 0 ) ( = ( + ( * ( - 1 ) lam12n1 ) ( * Nl2main_b1 lam12n3 ) ( * Nl2main_b2 lam12n4 ) ( * Nl2main_b3 lam12n5 ) ( - ( - RFN1_main_b ) ) ) 0 ) ( = ( + ( * 1 lam12n1 ) ( * 1 lam12n2 ) ( * Nl2main_am1 lam12n3 ) ( * Nl2main_am2 lam12n4 ) ( * Nl2main_am3 lam12n5 ) ( - ( - RFN1_main_am ) ) ) 0 ) ( = ( + ( * ( - 1 ) lam12n1 ) ( * ( - 1 ) lam12n2 ) ( * Nl2main_bm1 lam12n3 ) ( * Nl2main_bm2 lam12n4 ) ( * Nl2main_bm3 lam12n5 ) ( - ( - RFN1_main_bm ) ) ) 0 ) ) ( and ( >= lam13n0 0 ) ( >= lam13n1 0 ) ( >= lam13n2 0 ) ( >= lam13n3 0 ) ( >= lam13n4 0 ) ( >= lam13n5 0 ) ( > ( + ( * 1 lam13n2 ) ( * Nl2CT1 lam13n3 ) ( * Nl2CT2 lam13n4 ) ( * Nl2CT3 lam13n5 ) ( - 1 ( + ( - ( + RFN1_CT ( * RFN1_main_am 0 ) ) RFN1_CT ) 1 ) ) ) 0 ) ( = ( + ( * 1 lam13n0 ) ( * ( - 1 ) lam13n1 ) ( * Nl2main_a1 lam13n3 ) ( * Nl2main_a2 lam13n4 ) ( * Nl2main_a3 lam13n5 ) ( - ( - ( + ( + 0 RFN1_main_a ) ( * RFN1_main_am 1 ) ) RFN1_main_a ) ) ) 0 ) ( = ( + ( * ( - 1 ) lam13n1 ) ( * Nl2main_b1 lam13n3 ) ( * Nl2main_b2 lam13n4 ) ( * Nl2main_b3 lam13n5 ) ( - ( - ( + 0 RFN1_main_b ) RFN1_main_b ) ) ) 0 ) ( = ( + ( * 1 lam13n1 ) ( * 1 lam13n2 ) ( * Nl2main_am1 lam13n3 ) ( * Nl2main_am2 lam13n4 ) ( * Nl2main_am3 lam13n5 ) ( - ( - ( + 0 ( * RFN1_main_am 1 ) ) RFN1_main_am ) ) ) 0 ) ( = ( + ( * ( - 1 ) lam13n1 ) ( * ( - 1 ) lam13n2 ) ( * Nl2main_bm1 lam13n3 ) ( * Nl2main_bm2 lam13n4 ) ( * Nl2main_bm3 lam13n5 ) ( - ( - ( + 0 RFN1_main_bm ) RFN1_main_bm ) ) ) 0 ) ) ) ) ( and ( >= lam11n0 0 ) ( >= lam11n1 0 ) ( >= lam11n2 0 ) ( >= lam11n3 0 ) ( >= lam11n4 0 ) ( >= lam11n5 0 ) ( > ( + ( * 1 lam11n2 ) ( * Nl2CT1 lam11n3 ) ( * Nl2CT2 lam11n4 ) ( * Nl2CT3 lam11n5 ) ( - 1 ) ) 0 ) ( = ( + ( * 1 lam11n0 ) ( * ( - 1 ) lam11n1 ) ( * Nl2main_a1 lam11n3 ) ( * Nl2main_a2 lam11n4 ) ( * Nl2main_a3 lam11n5 ) ) 0 ) ( = ( + ( * ( - 1 ) lam11n1 ) ( * Nl2main_b1 lam11n3 ) ( * Nl2main_b2 lam11n4 ) ( * Nl2main_b3 lam11n5 ) ) 0 ) ( = ( + ( * 1 lam11n1 ) ( * 1 lam11n2 ) ( * Nl2main_am1 lam11n3 ) ( * Nl2main_am2 lam11n4 ) ( * Nl2main_am3 lam11n5 ) ) 0 ) ( = ( + ( * ( - 1 ) lam11n1 ) ( * ( - 1 ) lam11n2 ) ( * Nl2main_bm1 lam11n3 ) ( * Nl2main_bm2 lam11n4 ) ( * Nl2main_bm3 lam11n5 ) ) 0 ) ) ))
(check-sat)
(exit)
